!    ibrav = 0, nat = 16, ntyp = 1
CELL_PARAMETERS bohr
  -10.2624999999999993    0.0000000000000000   10.2624999999999993
    0.0000000000000000   10.2624999999999993   10.2624999999999993
  -10.2624999999999993   10.2624999999999993    0.0000000000000000
ATOMIC_SPECIES
 Si   28.08550   Si_ONCV_PBE-1.2.upf
ATOMIC_POSITIONS crystal
 Si   0.0013780400120566  0.0000000000000000  0.0000000000000000
 Si   0.5000000000000000  0.0000000000000000  0.0000000000000000
 Si   0.0000000000000000  0.5000000000000000  0.0000000000000000
 Si   0.5000000000000000  0.5000000000000000  0.0000000000000000
 Si   0.0000000000000000  0.0000000000000000  0.5000000000000000
 Si   0.5000000000000000  0.0000000000000000  0.5000000000000000
 Si   0.0000000000000000  0.5000000000000000  0.5000000000000000
 Si   0.5000000000000000  0.5000000000000000  0.5000000000000000
 Si   0.1250000000000000  0.1250000000000000  0.1250000000000000
 Si   0.6250000000000001  0.1250000000000000  0.1250000000000001
 Si   0.1250000000000000  0.6250000000000001  0.1250000000000000
 Si   0.6250000000000001  0.6250000000000000  0.1250000000000001
 Si   0.1250000000000000  0.1250000000000000  0.6250000000000000
 Si   0.6250000000000000  0.1250000000000001  0.6250000000000000
 Si   0.1250000000000000  0.6250000000000001  0.6250000000000000
 Si   0.6250000000000000  0.6250000000000001  0.6250000000000000