Phonons of silicon on a 2x2x2 q-grid (DFPT)
&INPUTPH
  prefix   = "si"
  outdir   = "./out"
  fildyn   = "si.dyn"
  ldisp    = .true.
  nq1      = 2
  nq2      = 2
  nq3      = 2
  tr2_ph   = 1.0d-14
/
