&INPUT
  fildyn = "si.dyn"
  flfrc  = "si.fc"
  zasr   = "simple"
/
